% demand
num_movements = 46;
loading_factor = [1950, 1750, 1650, 1950, 1750, 1050, 1900, 900, 1600, 800, 1050, 1150, 1750, 950, 1400, 1000, 1800, 1650, 1600, 1850, 850, 900, 1050, 1300, 1750, 1900, 1450, 1750, 1950, 1250, 1700, 1600, 1100, 1650, 1250, 850, 1200, 1750, 900, 800, 1050, 1200, 850, 1950, 1900, 1800];
pickup_time = [0, 0, 0, 0, 0, 0, 1, 1, 1, 1, 1, 2, 2, 2, 3, 3, 4, 4, 4, 4, 4, 4, 4, 4, 6, 6, 6, 7, 7, 7, 7, 7, 7, 7, 9, 9, 9, 9, 9, 10, 10, 10, 10, 10, 10, 11];
delivery_time = [2, 1, 1, 1, 2, 4, 2, 2, 2, 4, 4, 4, 4, 4, 4, 4, 6, 6, 6, 6, 6, 6, 6, 6, 7, 7, 7, 9, 9, 10, 11, 9, 10, 9, 10, 10, 10, 10, 10, 11, 12, 11, 11, 11, 11, 12];

% transporter definition
total_capacity = 11000;
num_decks = 4;
capacity = [3000, 3000, 1000, 4000];

% ways out of decks
num_ways_out = 2;
paths_out = array3d(decks, ways_out, decks, [
% ways out of deck d1
2, 4, 0, 0, 3, 4, 0, 0, 

% ways out of deck d2
4, 0, 0, 0, 0, 0, 0, 0,	

% ways out of deck d3
4, 0, 0, 0, 0, 0, 0, 0,	

% ways out of deck d4
0, 0, 0, 0,	0, 0, 0, 0,	

]);

